
Gurobi 11.0.3 (linux64) logging started Mon 18 Nov 2024 11:32:38 PM CST

Set parameter LogFile to value "/home/dlcole3/graph_abstraction/hierarchical_graphs/git_storage/CS1/HP_low_reserves/gurobi_logs/serial/logfile_DA_22.log"
Set parameter TimeLimit to value 900

Gurobi 11.0.3 (linux64) logging started Mon 18 Nov 2024 11:32:39 PM CST

Set parameter LogFile to value "/home/dlcole3/graph_abstraction/hierarchical_graphs/git_storage/CS1/HP_low_reserves/gurobi_logs/serial/logfile_DA_22.log"
Gurobi Optimizer version 11.0.3 build v11.0.3rc0 (linux64 - "Ubuntu 18.04.3 LTS")

CPU model: Intel(R) Xeon(R) CPU E5-2698 v4 @ 2.20GHz, instruction set [SSE2|AVX|AVX2]
Thread count: 40 physical cores, 80 logical processors, using up to 20 threads

Optimize a model with 35850 rows, 31725 columns and 164765 nonzeros
Model fingerprint: 0x5efa3f3f
Variable types: 19950 continuous, 11775 integer (11775 binary)
Coefficient statistics:
  Matrix range     [5e-02, 2e+04]
  Objective range  [1e+00, 8e+04]
  Bounds range     [5e-02, 2e+05]
  RHS range        [5e-02, 7e+03]
Presolve removed 4387 rows and 5793 columns
Presolve time: 0.93s
Presolved: 31463 rows, 25932 columns, 145603 nonzeros
Variable types: 15443 continuous, 10489 integer (10489 binary)
Found heuristic solution: objective 9.392691e+08
Found heuristic solution: objective 8.100134e+08
Found heuristic solution: objective 5.619707e+08
Deterministic concurrent LP optimizer: primal and dual simplex
Showing primal log only...

Concurrent spin time: 0.00s

Solved with dual simplex

Use crossover to convert LP symmetric solution to basic solution...

Root relaxation: objective 1.005513e+07, 12268 iterations, 1.19 seconds (0.66 work units)

    Nodes    |    Current Node    |     Objective Bounds      |     Work
 Expl Unexpl |  Obj  Depth IntInf | Incumbent    BestBd   Gap | It/Node Time

     0     0 1.0055e+07    0   88 5.6197e+08 1.0055e+07  98.2%     -    3s
H    0     0                    5.608514e+08 1.0055e+07  98.2%     -    3s
H    0     0                    2.815087e+07 1.0055e+07  64.3%     -    4s
     0     0 1.0061e+07    0  146 2.8151e+07 1.0061e+07  64.3%     -    4s
H    0     0                    2.084622e+07 1.0066e+07  51.7%     -    4s
     0     0 1.0066e+07    0  176 2.0846e+07 1.0066e+07  51.7%     -    5s
H    0     0                    1.525697e+07 1.0067e+07  34.0%     -    5s
     0     0 1.0067e+07    0  189 1.5257e+07 1.0067e+07  34.0%     -    5s
     0     0 1.0067e+07    0  189 1.5257e+07 1.0067e+07  34.0%     -    6s
     0     2 1.0067e+07    0  189 1.5257e+07 1.0067e+07  34.0%     -    7s
    15    32 1.0074e+07    4   80 1.5257e+07 1.0073e+07  34.0%   301   10s
H   32    52                    1.042098e+07 1.0077e+07  3.30%   269   11s
H   43    52                    1.035020e+07 1.0077e+07  2.64%   225   11s
H   57    72                    1.017465e+07 1.0079e+07  0.94%   201   12s
H  136    78                    1.017464e+07 1.0080e+07  0.93%   139   15s
H  262   162                    1.011080e+07 1.0080e+07  0.31%   126   26s
H  265   162                    1.010910e+07 1.0080e+07  0.29%   126   26s
H  274   162                    1.010114e+07 1.0080e+07  0.21%   124   26s
   552   195 1.0099e+07   16   59 1.0101e+07 1.0083e+07  0.18%  88.0   30s
  1107   454 1.0101e+07   25   56 1.0101e+07 1.0084e+07  0.17%  72.1   35s
H 1327   534                    1.010114e+07 1.0084e+07  0.17%  68.6   37s
  1610   769 1.0085e+07   21   68 1.0101e+07 1.0084e+07  0.17%  66.5   40s
  2505  1157 1.0089e+07   27   67 1.0101e+07 1.0084e+07  0.17%  62.0   45s
  3181  1586 1.0099e+07   62  189 1.0101e+07 1.0084e+07  0.17%  58.5   52s
  3184  1588 1.0094e+07   37   81 1.0101e+07 1.0084e+07  0.17%  58.5   55s
  3203  1596 1.0084e+07   19   82 1.0101e+07 1.0084e+07  0.17%  63.5   60s
  3388  1587 1.0088e+07   28   74 1.0101e+07 1.0084e+07  0.17%  64.7   66s
  3921  1627 1.0091e+07   25   73 1.0101e+07 1.0084e+07  0.17%  65.1   77s
H 3922  1547                    1.010107e+07 1.0084e+07  0.17%  65.1   77s
H 3923  1471                    1.010079e+07 1.0084e+07  0.16%  65.1   77s
H 3932  1397                    1.009972e+07 1.0084e+07  0.15%  65.0   77s
H 3940  1325                    1.009953e+07 1.0084e+07  0.15%  65.0   77s
  4427  1412     cutoff   27      1.0100e+07 1.0084e+07  0.15%  66.1   80s
H 5058  1413                    1.009950e+07 1.0084e+07  0.15%  65.1   84s
  5230  1493 1.0096e+07   41   49 1.0099e+07 1.0084e+07  0.15%  64.7   85s
  5486  1482     cutoff   57      1.0099e+07 1.0084e+07  0.15%  64.8   90s
H 5494  1417                    1.009922e+07 1.0084e+07  0.15%  64.8   90s
  6490  1519 1.0097e+07   46   71 1.0099e+07 1.0087e+07  0.12%  65.0   95s
  7017  1729     cutoff   42      1.0099e+07 1.0088e+07  0.11%  64.6  100s

Cutting planes:
  Gomory: 1

Explored 8534 nodes (542844 simplex iterations) in 104.21 seconds (103.16 work units)
Thread count was 20 (of 80 available processors)

Solution count 10: 1.00992e+07 1.00992e+07 1.00995e+07 ... 1.01108e+07

Optimal solution found (tolerance 1.00e-03)
Best objective 1.009921624878e+07, best bound 1.008912791594e+07, gap 0.0999%

User-callback calls 33818, time in user-callback 0.04 sec
